(declare-const delta_i Int)
(declare-const delta_k Int)
(declare-const delta___cost Int)
(declare-const delta_j Int)
(assert (exists
         ((|i'?1| Int) (tr?2 Int) (tr?3 Int) (tr?4 Int) (tr?5 Int)
            (|j'?6| Int) (|k'?7| Int) (|S1,0?8| Real) (|__cost'?9| Int)
            (KSUM1?10 Int) (|K1,0?11| Int) (K?12 Int) (|k'?13| Int)
            (|j'?14| Int) (|__cost'?15| Int) (m?16 Int) (k?17 Int) (j?18 Int)
            (n?19 Int) (i?20 Int) (__cost?21 Int))
         (and (<= (- i?20) 0) (< (+ (- n?19) i?20) 0) (<= (- __cost?21) 0)
                (<= (+ (- __cost?21) -1) 0) (<= (- K?12) 0)
                (<= (- |K1,0?11|) 0) (= (+ |K1,0?11| (- K?12)) 0)
                (<= (+ KSUM1?10 (- K?12)) 0)
                (= (+ (- |S1,0?8|) |__cost'?9| (- |K1,0?11|)) 0)
                (= (+ (- KSUM1?10) |K1,0?11|) 0)
                (= (+ |S1,0?8| (- __cost?21) -1) 0)
                (or (and (= K?12 0) (= (+ (- |k'?7|) k?17) 0)
                           (= (+ (- |j'?6|) j?18) 0)
                           (= (+ (- |__cost'?9|) __cost?21 1) 0))
                      (and (<= (+ (- K?12) 1) 0) (<= (- j?18) 0)
                             (<= (- __cost?21) 0) (<= (+ (- |j'?6|) -1) 0)
                             (<= (+ (- |k'?7|) 1) 0)
                             (<= (+ (- |__cost'?9|) 2) 0)))
                (= (+ |__cost'?9| (- K?12) (- __cost?21) -1) 0)
                (<= (+ |j'?6| (- j?18) K?12) 0) (<= (- K?12) 0)
                (or (and (< (- |__cost'?9|) 0) (< |j'?6| 0))
                      (and (< (- |__cost'?9|) 0) (<= (- |j'?6|) 0)
                             (<= (+ (- tr?4) tr?5) 0)
                             (<= (+ (- tr?2) tr?3) 0)))
                (or (< (+ (- m?16) |j'?6| 1) 0) (< 0 (+ (- m?16) |j'?6| 1)))
                (= (+ |k'?13| (- |k'?7|)) 0) (= (+ |j'?14| (- |j'?6|) -1) 0)
                (= (+ |i'?1| (- i?20) -1) 0)
                (= (+ |__cost'?15| (- |__cost'?9|)) 0)
                (= delta___cost (+ |__cost'?15| (- __cost?21)))
                (= delta_i (+ |i'?1| (- i?20)))
                (= delta_j (+ |j'?14| (- j?18)))
                (= delta_k (+ |k'?13| (- k?17))))))
(check-sat)
